12
1 4
2 3
3 7
4 8
5 5
6 1
7 1
8 2
9 4
10 10
11 9
37
0 1 36
1 0 36
0 2 32
2 0 32
0 3 40
3 0 40
0 4 31
4 0 31
0 5 39
5 0 39
0 6 91
6 0 91
0 7 58
7 0 58
0 8 21
8 0 21
0 9 91
9 0 91
0 10 24
10 0 24
0 11 19
11 0 19
1 7 68
2 9 75
2 11 67
3 4 7
3 5 36
3 8 24
3 9 34
3 10 32
5 10 42
6 10 13
7 8 18
7 10 63
7 11 12
8 11 23
9 11 42
